HFSDDW
15	6	3
0	62	1	53	2	92
0	57	1	4	2	86
0	67	1	82	2	79
0	73	1	81	2	45
0	88	1	25	2	40
0	60	1	60	2	21
0	98	1	31	2	60
0	3	1	68	2	35
0	3	1	86	2	68
0	8	1	45	2	31
0	72	1	27	2	35
0	34	1	51	2	36
0	23	1	2	2	28
0	92	1	13	2	5
0	89	1	26	2	10
LBCmax: 439
RELDUE
-1	230	2	6
-1	173	4	5
-1	187	1	5
-1	380	1	5
-1	210	7	1
-1	152	4	6
-1	198	9	1
-1	137	2	5
-1	329	2	4
-1	210	3	6
-1	288	7	5
-1	355	2	2
-1	283	3	5
-1	275	3	6
-1	179	1	9
DDW
205	255
149	197
168	206
372	388
178	242
135	169
170	226
125	149
313	345
185	235
271	305
309	401
255	311
223	327
145	213
